NAME: Random_50_1
ELLAPSED_TIME_(ms): 0
TOUR_SIZE: 1067.0463
TOUR_SECTION
0
1
28
2
16
29
15
21
12
19
8
24
39
17
14
47
5
25
22
27
18
13
4
48
23
42
30
40
37
20
49
7
3
41
9
44
45
33
32
11
46
36
35
26
10
31
43
6
38
34
0
EOF
